benchmark/results/graph__15-1000-0.10-02_13/graph__15-1000-0.10-02_13_QuintonOs_Benders_primal_sub.lp
\ This file has been generated by DOcplex
\ ENCODING=ISO-8859-1
\Problem name: Quinton Bounded Benders_primal_sub

Maximize
 obj: tau
Subject To
 c1: tau <= 0.001069518717
 c2: y_a0_proc_0 + y_a0_proc_1 - tau = 0
 c3: y_a0_proc_0 <= 1
 c4: y_a0_proc_1 <= 0
 c5: tau <= 0.001123595506
 c6: y_a1_proc_0 + y_a1_proc_1 - tau = 0
 c7: y_a1_proc_0 <= 0
 c8: y_a1_proc_1 <= 1
 c9: tau <= 0.000900900901
 c10: y_a2_proc_0 + y_a2_proc_1 - tau = 0
 c11: y_a2_proc_0 <= 0
 c12: y_a2_proc_1 <= 1
 c13: tau <= 0.002881844380
 c14: y_a3_proc_0 + y_a3_proc_1 - tau = 0
 c15: y_a3_proc_0 <= 1
 c16: y_a3_proc_1 <= 0
 c17: tau <= 0.001046025105
 c18: y_a4_proc_0 - tau = 0
 c19: y_a4_proc_0 <= 1
 c20: tau <= 0.001138952164
 c21: y_a5_proc_0 + y_a5_proc_1 - tau = 0
 c22: y_a5_proc_0 <= 1
 c23: y_a5_proc_1 <= 0
 c24: tau <= 0.000824402308
 c25: y_a6_proc_0 - tau = 0
 c26: y_a6_proc_0 <= 1
 c27: tau <= 0.000827814570
 c28: y_a7_proc_1 - tau = 0
 c29: y_a7_proc_1 <= 1
 c30: tau <= 0.001222493888
 c31: y_a8_proc_1 - tau = 0
 c32: y_a8_proc_1 <= 1
 c33: tau <= 0.001285347044
 c34: y_a9_proc_0 + y_a9_proc_1 - tau = 0
 c35: y_a9_proc_0 <= 1
 c36: y_a9_proc_1 <= 0
 c37: tau <= 0.000985221675
 c38: y_a10_proc_0 + y_a10_proc_1 - tau = 0
 c39: y_a10_proc_0 <= 0
 c40: y_a10_proc_1 <= 1
 c41: tau <= 0.003095975232
 c42: y_a11_proc_0 + y_a11_proc_1 - tau = 0
 c43: y_a11_proc_0 <= 1
 c44: y_a11_proc_1 <= 0
 c45: tau <= 0.001336898396
 c46: y_a12_proc_0 - tau = 0
 c47: y_a12_proc_0 <= 1
 c48: tau <= 0.000879507476
 c49: y_a13_proc_0 + y_a13_proc_1 - tau = 0
 c50: y_a13_proc_0 <= 0
 c51: y_a13_proc_1 <= 1
 c52: tau <= 0.003597122302
 c53: y_a14_proc_0 + y_a14_proc_1 - tau = 0
 c54: y_a14_proc_0 <= 1
 c55: y_a14_proc_1 <= 0
 c56: u_a1 - u_a0 - 935 y_a0_proc_0 - 1102 y_a0_proc_1 >= -2
 c57: u_a2 - u_a0 - 935 y_a0_proc_0 - 1102 y_a0_proc_1 >= -2
 c58: u_a3 - u_a1 - 762 y_a1_proc_0 - 890 y_a1_proc_1 >= -1
 c59: u_a3 - u_a4 - 956 y_a4_proc_0 >= -1
 c60: u_a5 - u_a3 - 347 y_a3_proc_0 - 722 y_a3_proc_1 >= 0
 c61: u_a0 - u_a6 - 1213 y_a6_proc_0 >= 0
 c62: u_a7 - u_a2 - 1260 y_a2_proc_0 - 1110 y_a2_proc_1 >= 0
 c63: u_a8 - u_a5 - 878 y_a5_proc_0 - 1020 y_a5_proc_1 >= 0
 c64: u_a1 - u_a9 - 778 y_a9_proc_0 - 837 y_a9_proc_1 >= -1
 c65: u_a0 - u_a10 - 1082 y_a10_proc_0 - 1015 y_a10_proc_1 >= 0
 c66: u_a11 - u_a9 - 778 y_a9_proc_0 - 837 y_a9_proc_1 >= 0
 c67: u_a4 - u_a12 - 748 y_a12_proc_0 >= 0
 c68: u_a10 - u_a13 - 1134 y_a13_proc_0 - 1137 y_a13_proc_1 >= 0
 c69: u_a14 - u_a10 - 1082 y_a10_proc_0 - 1015 y_a10_proc_1 >= 0
 c70: - 1134 y_a13_proc_0 - 1137 y_a13_proc_1 >= -1
 c71: u_a10 - u_a3 - 347 y_a3_proc_0 - 722 y_a3_proc_1 >= 0
 c72: u_a4 - u_a6 - 1213 y_a6_proc_0 >= 0
 c73: u_a1 - u_a12 - 748 y_a12_proc_0 >= -1
 c74: u_a12 - u_a14 - 278 y_a14_proc_0 - 804 y_a14_proc_1 >= 0
 c75: u_a12 - u_a7 - 1208 y_a7_proc_1 >= 0
 c76: u_a2 - u_a8 - 818 y_a8_proc_1 >= 0
 c77: u_a4 - u_a11 - 323 y_a11_proc_0 - 1051 y_a11_proc_1 >= 0
 c78: - 1213 y_a6_proc_0 >= -1
 c79: u_a5 - u_a10 - 1082 y_a10_proc_0 - 1015 y_a10_proc_1 >= -1
 c80: u_a6 - u_a11 - 323 y_a11_proc_0 - 1051 y_a11_proc_1 >= 0
 c81: u_a9 - u_a14 - 278 y_a14_proc_0 - 804 y_a14_proc_1 >= 0
 c82: u_a1 - u_a0 - 935 y_a0_proc_0 >= -1244
 c83: u_a1 - u_a0 - 1102 y_a0_proc_1 >= -1244
 c84: u_a0 - u_a1 - 762 y_a1_proc_0 >= -1277
 c85: u_a0 - u_a1 - 890 y_a1_proc_1 >= -1277
 c86: u_a2 - u_a0 - 935 y_a0_proc_0 >= -1277
 c87: u_a2 - u_a0 - 1102 y_a0_proc_1 >= -1277
 c88: u_a0 - u_a2 - 1260 y_a2_proc_0 >= -1244
 c89: u_a0 - u_a2 - 1110 y_a2_proc_1 >= -1244
 c90: u_a3 - u_a0 - 935 y_a0_proc_0 >= -3
 c91: u_a3 - u_a0 - 1102 y_a0_proc_1 >= -2523
 c92: u_a0 - u_a3 - 347 y_a3_proc_0 >= 2
 c93: u_a0 - u_a3 - 722 y_a3_proc_1 >= -2518
 c94: u_a4 - u_a0 - 935 y_a0_proc_0 >= -2
 c95: u_a0 - u_a4 - 956 y_a4_proc_0 >= 1
 c96: u_a5 - u_a0 - 935 y_a0_proc_0 >= -3
 c97: u_a5 - u_a0 - 1102 y_a0_proc_1 >= -2523
 c98: u_a0 - u_a5 - 878 y_a5_proc_0 >= 2
 c99: u_a0 - u_a5 - 1020 y_a5_proc_1 >= -2518
 c100: u_a6 - u_a0 - 935 y_a0_proc_0 >= -2
 c101: u_a0 - u_a6 - 1213 y_a6_proc_0 >= 1
 c102: u_a7 - u_a0 - 1102 y_a0_proc_1 >= -1244
 c103: u_a0 - u_a7 - 1208 y_a7_proc_1 >= -1277
 c104: u_a8 - u_a0 - 1102 y_a0_proc_1 >= -1244
 c105: u_a0 - u_a8 - 818 y_a8_proc_1 >= -1277
 c106: u_a9 - u_a0 - 935 y_a0_proc_0 >= -3
 c107: u_a9 - u_a0 - 1102 y_a0_proc_1 >= -2523
 c108: u_a0 - u_a9 - 778 y_a9_proc_0 >= 2
 c109: u_a0 - u_a9 - 837 y_a9_proc_1 >= -2518
 c110: u_a10 - u_a0 - 935 y_a0_proc_0 >= -1277
 c111: u_a10 - u_a0 - 1102 y_a0_proc_1 >= -1277
 c112: u_a0 - u_a10 - 1082 y_a10_proc_0 >= -1244
 c113: u_a0 - u_a10 - 1015 y_a10_proc_1 >= -1244
 c114: u_a11 - u_a0 - 935 y_a0_proc_0 >= -2
 c115: u_a11 - u_a0 - 1102 y_a0_proc_1 >= -2522
 c116: u_a0 - u_a11 - 323 y_a11_proc_0 >= 1
 c117: u_a0 - u_a11 - 1051 y_a11_proc_1 >= -2519
 c118: u_a12 - u_a0 - 935 y_a0_proc_0 >= -2
 c119: u_a0 - u_a12 - 748 y_a12_proc_0 >= 1
 c120: u_a13 - u_a0 - 935 y_a0_proc_0 >= -1277
 c121: u_a13 - u_a0 - 1102 y_a0_proc_1 >= -1277
 c122: u_a0 - u_a13 - 1134 y_a13_proc_0 >= -1244
 c123: u_a0 - u_a13 - 1137 y_a13_proc_1 >= -1244
 c124: u_a14 - u_a0 - 935 y_a0_proc_0 >= -3
 c125: u_a14 - u_a0 - 1102 y_a0_proc_1 >= -2523
 c126: u_a0 - u_a14 - 278 y_a14_proc_0 >= 2
 c127: u_a0 - u_a14 - 804 y_a14_proc_1 >= -2518
 c128: u_a2 - u_a1 - 762 y_a1_proc_0 >= -2521
 c129: u_a2 - u_a1 - 890 y_a1_proc_1 >= -1
 c130: u_a1 - u_a2 - 1260 y_a2_proc_0 >= -2520
 c131: u_a1 - u_a2 - 1110 y_a2_proc_1 >= 0
 c132: u_a3 - u_a1 - 762 y_a1_proc_0 >= -1277
 c133: u_a3 - u_a1 - 890 y_a1_proc_1 >= -1277
 c134: u_a1 - u_a3 - 347 y_a3_proc_0 >= -1244
 c135: u_a1 - u_a3 - 722 y_a3_proc_1 >= -1244
 c136: u_a4 - u_a1 - 762 y_a1_proc_0 >= -1244
 c137: u_a1 - u_a4 - 956 y_a4_proc_0 >= -1277
 c138: u_a5 - u_a1 - 762 y_a1_proc_0 >= -1244
 c139: u_a5 - u_a1 - 890 y_a1_proc_1 >= -1244
 c140: u_a1 - u_a5 - 878 y_a5_proc_0 >= -1277
 c141: u_a1 - u_a5 - 1020 y_a5_proc_1 >= -1277
 c142: u_a6 - u_a1 - 762 y_a1_proc_0 >= -1277
 c143: u_a1 - u_a6 - 1213 y_a6_proc_0 >= -1244
 c144: u_a7 - u_a1 - 890 y_a1_proc_1 >= -1
 c145: u_a1 - u_a7 - 1208 y_a7_proc_1 >= 0
 c146: u_a8 - u_a1 - 890 y_a1_proc_1 >= -1
 c147: u_a1 - u_a8 - 818 y_a8_proc_1 >= 0
 c148: u_a9 - u_a1 - 762 y_a1_proc_0 >= -1277
 c149: u_a9 - u_a1 - 890 y_a1_proc_1 >= -1277
 c150: u_a1 - u_a9 - 778 y_a9_proc_0 >= -1244
 c151: u_a1 - u_a9 - 837 y_a9_proc_1 >= -1244
 c152: u_a10 - u_a1 - 762 y_a1_proc_0 >= -2521
 c153: u_a10 - u_a1 - 890 y_a1_proc_1 >= -1
 c154: u_a1 - u_a10 - 1082 y_a10_proc_0 >= -2520
 c155: u_a1 - u_a10 - 1015 y_a10_proc_1 >= 0
 c156: u_a11 - u_a1 - 762 y_a1_proc_0 >= -1277
 c157: u_a11 - u_a1 - 890 y_a1_proc_1 >= -1277
 c158: u_a1 - u_a11 - 323 y_a11_proc_0 >= -1244
 c159: u_a1 - u_a11 - 1051 y_a11_proc_1 >= -1244
 c160: u_a12 - u_a1 - 762 y_a1_proc_0 >= -1277
 c161: u_a1 - u_a12 - 748 y_a12_proc_0 >= -1244
 c162: u_a13 - u_a1 - 762 y_a1_proc_0 >= -2529
 c163: u_a13 - u_a1 - 890 y_a1_proc_1 >= -9
 c164: u_a1 - u_a13 - 1134 y_a13_proc_0 >= -2512
 c165: u_a1 - u_a13 - 1137 y_a13_proc_1 >= 8
 c166: u_a14 - u_a1 - 762 y_a1_proc_0 >= -1277
 c167: u_a14 - u_a1 - 890 y_a1_proc_1 >= -1277
 c168: u_a1 - u_a14 - 278 y_a14_proc_0 >= -1244
 c169: u_a1 - u_a14 - 804 y_a14_proc_1 >= -1244
 c170: u_a3 - u_a2 - 1260 y_a2_proc_0 >= -1277
 c171: u_a3 - u_a2 - 1110 y_a2_proc_1 >= -1277
 c172: u_a2 - u_a3 - 347 y_a3_proc_0 >= -1244
 c173: u_a2 - u_a3 - 722 y_a3_proc_1 >= -1244
 c174: u_a4 - u_a2 - 1260 y_a2_proc_0 >= -1277
 c175: u_a2 - u_a4 - 956 y_a4_proc_0 >= -1244
 c176: u_a5 - u_a2 - 1260 y_a2_proc_0 >= -1277
 c177: u_a5 - u_a2 - 1110 y_a2_proc_1 >= -1277
 c178: u_a2 - u_a5 - 878 y_a5_proc_0 >= -1244
 c179: u_a2 - u_a5 - 1020 y_a5_proc_1 >= -1244
 c180: u_a6 - u_a2 - 1260 y_a2_proc_0 >= -1244
 c181: u_a2 - u_a6 - 1213 y_a6_proc_0 >= -1277
 c182: u_a7 - u_a2 - 1110 y_a2_proc_1 >= 0
 c183: u_a2 - u_a7 - 1208 y_a7_proc_1 >= -1
 c184: u_a8 - u_a2 - 1110 y_a2_proc_1 >= -1
 c185: u_a2 - u_a8 - 818 y_a8_proc_1 >= 0
 c186: u_a9 - u_a2 - 1260 y_a2_proc_0 >= -1244
 c187: u_a9 - u_a2 - 1110 y_a2_proc_1 >= -1244
 c188: u_a2 - u_a9 - 778 y_a9_proc_0 >= -1277
 c189: u_a2 - u_a9 - 837 y_a9_proc_1 >= -1277
 c190: u_a10 - u_a2 - 1260 y_a2_proc_0 >= -2521
 c191: u_a10 - u_a2 - 1110 y_a2_proc_1 >= -1
 c192: u_a2 - u_a10 - 1082 y_a10_proc_0 >= -2520
 c193: u_a2 - u_a10 - 1015 y_a10_proc_1 >= 0
 c194: u_a11 - u_a2 - 1260 y_a2_proc_0 >= -1277
 c195: u_a11 - u_a2 - 1110 y_a2_proc_1 >= -1277
 c196: u_a2 - u_a11 - 323 y_a11_proc_0 >= -1244
 c197: u_a2 - u_a11 - 1051 y_a11_proc_1 >= -1244
 c198: u_a12 - u_a2 - 1260 y_a2_proc_0 >= -1277
 c199: u_a2 - u_a12 - 748 y_a12_proc_0 >= -1244
 c200: u_a13 - u_a2 - 1260 y_a2_proc_0 >= -2529
 c201: u_a13 - u_a2 - 1110 y_a2_proc_1 >= -9
 c202: u_a2 - u_a13 - 1134 y_a13_proc_0 >= -2512
 c203: u_a2 - u_a13 - 1137 y_a13_proc_1 >= 8
 c204: u_a14 - u_a2 - 1260 y_a2_proc_0 >= -1277
 c205: u_a14 - u_a2 - 1110 y_a2_proc_1 >= -1277
 c206: u_a2 - u_a14 - 278 y_a14_proc_0 >= -1244
 c207: u_a2 - u_a14 - 804 y_a14_proc_1 >= -1244
 c208: u_a4 - u_a3 - 347 y_a3_proc_0 >= 0
 c209: u_a3 - u_a4 - 956 y_a4_proc_0 >= -1
 c210: u_a5 - u_a3 - 347 y_a3_proc_0 >= 0
 c211: u_a5 - u_a3 - 722 y_a3_proc_1 >= -2520
 c212: u_a3 - u_a5 - 878 y_a5_proc_0 >= -1
 c213: u_a3 - u_a5 - 1020 y_a5_proc_1 >= -2521
 c214: u_a6 - u_a3 - 347 y_a3_proc_0 >= 0
 c215: u_a3 - u_a6 - 1213 y_a6_proc_0 >= -1
 c216: u_a7 - u_a3 - 722 y_a3_proc_1 >= -1277
 c217: u_a3 - u_a7 - 1208 y_a7_proc_1 >= -1244
 c218: u_a8 - u_a3 - 722 y_a3_proc_1 >= -1244
 c219: u_a3 - u_a8 - 818 y_a8_proc_1 >= -1277
 c220: u_a9 - u_a3 - 347 y_a3_proc_0 >= 0
 c221: u_a9 - u_a3 - 722 y_a3_proc_1 >= -2520
 c222: u_a3 - u_a9 - 778 y_a9_proc_0 >= -1
 c223: u_a3 - u_a9 - 837 y_a9_proc_1 >= -2521
 c224: u_a10 - u_a3 - 347 y_a3_proc_0 >= -1277
 c225: u_a10 - u_a3 - 722 y_a3_proc_1 >= -1277
 c226: u_a3 - u_a10 - 1082 y_a10_proc_0 >= -1244
 c227: u_a3 - u_a10 - 1015 y_a10_proc_1 >= -1244
 c228: u_a11 - u_a3 - 347 y_a3_proc_0 >= 0
 c229: u_a11 - u_a3 - 722 y_a3_proc_1 >= -2520
 c230: u_a3 - u_a11 - 323 y_a11_proc_0 >= -1
 c231: u_a3 - u_a11 - 1051 y_a11_proc_1 >= -2521
 c232: u_a12 - u_a3 - 347 y_a3_proc_0 >= 0
 c233: u_a3 - u_a12 - 748 y_a12_proc_0 >= -1
 c234: u_a13 - u_a3 - 347 y_a3_proc_0 >= -1277
 c235: u_a13 - u_a3 - 722 y_a3_proc_1 >= -1277
 c236: u_a3 - u_a13 - 1134 y_a13_proc_0 >= -1244
 c237: u_a3 - u_a13 - 1137 y_a13_proc_1 >= -1244
 c238: u_a14 - u_a3 - 347 y_a3_proc_0 >= 0
 c239: u_a14 - u_a3 - 722 y_a3_proc_1 >= -2520
 c240: u_a3 - u_a14 - 278 y_a14_proc_0 >= -1
 c241: u_a3 - u_a14 - 804 y_a14_proc_1 >= -2521
 c242: u_a5 - u_a4 - 956 y_a4_proc_0 >= -1
 c243: u_a4 - u_a5 - 878 y_a5_proc_0 >= 0
 c244: u_a6 - u_a4 - 956 y_a4_proc_0 >= -1
 c245: u_a4 - u_a6 - 1213 y_a6_proc_0 >= 0
 c246: u_a9 - u_a4 - 956 y_a4_proc_0 >= -1
 c247: u_a4 - u_a9 - 778 y_a9_proc_0 >= 0
 c248: u_a10 - u_a4 - 956 y_a4_proc_0 >= -1244
 c249: u_a4 - u_a10 - 1082 y_a10_proc_0 >= -1277
 c250: u_a11 - u_a4 - 956 y_a4_proc_0 >= -1
 c251: u_a4 - u_a11 - 323 y_a11_proc_0 >= 0
 c252: u_a12 - u_a4 - 956 y_a4_proc_0 >= -1
 c253: u_a4 - u_a12 - 748 y_a12_proc_0 >= 0
 c254: u_a13 - u_a4 - 956 y_a4_proc_0 >= -1277
 c255: u_a4 - u_a13 - 1134 y_a13_proc_0 >= -1244
 c256: u_a14 - u_a4 - 956 y_a4_proc_0 >= -1
 c257: u_a4 - u_a14 - 278 y_a14_proc_0 >= 0
 c258: u_a6 - u_a5 - 878 y_a5_proc_0 >= 0
 c259: u_a5 - u_a6 - 1213 y_a6_proc_0 >= -1
 c260: u_a7 - u_a5 - 1020 y_a5_proc_1 >= -1277
 c261: u_a5 - u_a7 - 1208 y_a7_proc_1 >= -1244
 c262: u_a8 - u_a5 - 1020 y_a5_proc_1 >= -1277
 c263: u_a5 - u_a8 - 818 y_a8_proc_1 >= -1244
 c264: u_a9 - u_a5 - 878 y_a5_proc_0 >= 0
 c265: u_a9 - u_a5 - 1020 y_a5_proc_1 >= -2520
 c266: u_a5 - u_a9 - 778 y_a9_proc_0 >= -1
 c267: u_a5 - u_a9 - 837 y_a9_proc_1 >= -2521
 c268: u_a10 - u_a5 - 878 y_a5_proc_0 >= -1277
 c269: u_a10 - u_a5 - 1020 y_a5_proc_1 >= -1277
 c270: u_a5 - u_a10 - 1082 y_a10_proc_0 >= -1244
 c271: u_a5 - u_a10 - 1015 y_a10_proc_1 >= -1244
 c272: u_a11 - u_a5 - 878 y_a5_proc_0 >= 0
 c273: u_a11 - u_a5 - 1020 y_a5_proc_1 >= -2520
 c274: u_a5 - u_a11 - 323 y_a11_proc_0 >= -1
 c275: u_a5 - u_a11 - 1051 y_a11_proc_1 >= -2521
 c276: u_a12 - u_a5 - 878 y_a5_proc_0 >= 0
 c277: u_a5 - u_a12 - 748 y_a12_proc_0 >= -1
 c278: u_a13 - u_a5 - 878 y_a5_proc_0 >= -1244
 c279: u_a13 - u_a5 - 1020 y_a5_proc_1 >= -1244
 c280: u_a5 - u_a13 - 1134 y_a13_proc_0 >= -1277
 c281: u_a5 - u_a13 - 1137 y_a13_proc_1 >= -1277
 c282: u_a14 - u_a5 - 878 y_a5_proc_0 >= 0
 c283: u_a14 - u_a5 - 1020 y_a5_proc_1 >= -2520
 c284: u_a5 - u_a14 - 278 y_a14_proc_0 >= -1
 c285: u_a5 - u_a14 - 804 y_a14_proc_1 >= -2521
 c286: u_a9 - u_a6 - 1213 y_a6_proc_0 >= -1
 c287: u_a6 - u_a9 - 778 y_a9_proc_0 >= 0
 c288: u_a10 - u_a6 - 1213 y_a6_proc_0 >= -1277
 c289: u_a6 - u_a10 - 1082 y_a10_proc_0 >= -1244
 c290: u_a11 - u_a6 - 1213 y_a6_proc_0 >= -1
 c291: u_a6 - u_a11 - 323 y_a11_proc_0 >= 0
 c292: u_a12 - u_a6 - 1213 y_a6_proc_0 >= 0
 c293: u_a6 - u_a12 - 748 y_a12_proc_0 >= -1
 c294: u_a13 - u_a6 - 1213 y_a6_proc_0 >= -1244
 c295: u_a6 - u_a13 - 1134 y_a13_proc_0 >= -1277
 c296: u_a14 - u_a6 - 1213 y_a6_proc_0 >= -1
 c297: u_a6 - u_a14 - 278 y_a14_proc_0 >= 0
 c298: u_a8 - u_a7 - 1208 y_a7_proc_1 >= -1
 c299: u_a7 - u_a8 - 818 y_a8_proc_1 >= 0
 c300: u_a9 - u_a7 - 1208 y_a7_proc_1 >= -1277
 c301: u_a7 - u_a9 - 837 y_a9_proc_1 >= -1244
 c302: u_a10 - u_a7 - 1208 y_a7_proc_1 >= -1
 c303: u_a7 - u_a10 - 1015 y_a10_proc_1 >= 0
 c304: u_a11 - u_a7 - 1208 y_a7_proc_1 >= -1244
 c305: u_a7 - u_a11 - 1051 y_a11_proc_1 >= -1277
 c306: u_a13 - u_a7 - 1208 y_a7_proc_1 >= -9
 c307: u_a7 - u_a13 - 1137 y_a13_proc_1 >= 8
 c308: u_a14 - u_a7 - 1208 y_a7_proc_1 >= -1277
 c309: u_a7 - u_a14 - 804 y_a14_proc_1 >= -1244
 c310: u_a9 - u_a8 - 818 y_a8_proc_1 >= -1277
 c311: u_a8 - u_a9 - 837 y_a9_proc_1 >= -1244
 c312: u_a10 - u_a8 - 818 y_a8_proc_1 >= -1
 c313: u_a8 - u_a10 - 1015 y_a10_proc_1 >= 0
 c314: u_a11 - u_a8 - 818 y_a8_proc_1 >= -1277
 c315: u_a8 - u_a11 - 1051 y_a11_proc_1 >= -1244
 c316: u_a13 - u_a8 - 818 y_a8_proc_1 >= -9
 c317: u_a8 - u_a13 - 1137 y_a13_proc_1 >= 8
 c318: u_a14 - u_a8 - 818 y_a8_proc_1 >= -1277
 c319: u_a8 - u_a14 - 804 y_a14_proc_1 >= -1244
 c320: u_a10 - u_a9 - 778 y_a9_proc_0 >= -1277
 c321: u_a10 - u_a9 - 837 y_a9_proc_1 >= -1277
 c322: u_a9 - u_a10 - 1082 y_a10_proc_0 >= -1244
 c323: u_a9 - u_a10 - 1015 y_a10_proc_1 >= -1244
 c324: u_a11 - u_a9 - 778 y_a9_proc_0 >= 0
 c325: u_a11 - u_a9 - 837 y_a9_proc_1 >= -2520
 c326: u_a9 - u_a11 - 323 y_a11_proc_0 >= -1
 c327: u_a9 - u_a11 - 1051 y_a11_proc_1 >= -2521
 c328: u_a12 - u_a9 - 778 y_a9_proc_0 >= 0
 c329: u_a9 - u_a12 - 748 y_a12_proc_0 >= -1
 c330: u_a13 - u_a9 - 778 y_a9_proc_0 >= -1277
 c331: u_a13 - u_a9 - 837 y_a9_proc_1 >= -1277
 c332: u_a9 - u_a13 - 1134 y_a13_proc_0 >= -1244
 c333: u_a9 - u_a13 - 1137 y_a13_proc_1 >= -1244
 c334: u_a14 - u_a9 - 778 y_a9_proc_0 >= -1
 c335: u_a14 - u_a9 - 837 y_a9_proc_1 >= -2521
 c336: u_a9 - u_a14 - 278 y_a14_proc_0 >= 0
 c337: u_a9 - u_a14 - 804 y_a14_proc_1 >= -2520
 c338: u_a11 - u_a10 - 1082 y_a10_proc_0 >= -1277
 c339: u_a11 - u_a10 - 1015 y_a10_proc_1 >= -1277
 c340: u_a10 - u_a11 - 323 y_a11_proc_0 >= -1244
 c341: u_a10 - u_a11 - 1051 y_a11_proc_1 >= -1244
 c342: u_a12 - u_a10 - 1082 y_a10_proc_0 >= -1277
 c343: u_a10 - u_a12 - 748 y_a12_proc_0 >= -1244
 c344: u_a13 - u_a10 - 1082 y_a10_proc_0 >= -2528
 c345: u_a13 - u_a10 - 1015 y_a10_proc_1 >= -8
 c346: u_a10 - u_a13 - 1134 y_a13_proc_0 >= -2513
 c347: u_a10 - u_a13 - 1137 y_a13_proc_1 >= 7
 c348: u_a14 - u_a10 - 1082 y_a10_proc_0 >= -1277
 c349: u_a14 - u_a10 - 1015 y_a10_proc_1 >= -1277
 c350: u_a10 - u_a14 - 278 y_a14_proc_0 >= -1244
 c351: u_a10 - u_a14 - 804 y_a14_proc_1 >= -1244
 c352: u_a12 - u_a11 - 323 y_a11_proc_0 >= 0
 c353: u_a11 - u_a12 - 748 y_a12_proc_0 >= -1
 c354: u_a13 - u_a11 - 323 y_a11_proc_0 >= -1277
 c355: u_a13 - u_a11 - 1051 y_a11_proc_1 >= -1277
 c356: u_a11 - u_a13 - 1134 y_a13_proc_0 >= -1244
 c357: u_a11 - u_a13 - 1137 y_a13_proc_1 >= -1244
 c358: u_a14 - u_a11 - 323 y_a11_proc_0 >= -1
 c359: u_a14 - u_a11 - 1051 y_a11_proc_1 >= -2521
 c360: u_a11 - u_a14 - 278 y_a14_proc_0 >= 0
 c361: u_a11 - u_a14 - 804 y_a14_proc_1 >= -2520
 c362: u_a13 - u_a12 - 748 y_a12_proc_0 >= -1244
 c363: u_a12 - u_a13 - 1134 y_a13_proc_0 >= -1277
 c364: u_a14 - u_a12 - 748 y_a12_proc_0 >= -1
 c365: u_a12 - u_a14 - 278 y_a14_proc_0 >= 0
 c366: u_a14 - u_a13 - 1134 y_a13_proc_0 >= -1277
 c367: u_a14 - u_a13 - 1137 y_a13_proc_1 >= -1277
 c368: u_a13 - u_a14 - 278 y_a14_proc_0 >= -1244
 c369: u_a13 - u_a14 - 804 y_a14_proc_1 >= -1244

Bounds
End
